<?xml version = "1.0" standalone="yes"?>
<!-- This file has been generated by DOcplex version 2.23.222  -->
<CPLEXSolution version="1.0">
 <header
   problemName="CVRP"
   objectiveValue="16061.2"
  />
 <variables>
  <variable name="x_0_1" index="0" value="1.00000"/>
  <variable name="x_0_3" index="2" value="1.00000"/>
  <variable name="x_0_4" index="3" value="1.00000"/>
  <variable name="x_0_5" index="4" value="1.00000"/>
  <variable name="x_0_8" index="7" value="1.00000"/>
  <variable name="x_0_9" index="8" value="1.00000"/>
  <variable name="x_0_10" index="9" value="1.00000"/>
  <variable name="x_0_12" index="11" value="1.00000"/>
  <variable name="x_0_14" index="13" value="1.00000"/>
  <variable name="x_0_16" index="15" value="1.00000"/>
  <variable name="x_0_19" index="18" value="1.00000"/>
  <variable name="x_1_0" index="21" value="1.00000"/>
  <variable name="x_2_21" index="62" value="1.00000"/>
  <variable name="x_3_0" index="63" value="1.00000"/>
  <variable name="x_4_0" index="84" value="1.00000"/>
  <variable name="x_5_7" index="111" value="1.00000"/>
  <variable name="x_6_0" index="126" value="1.00000"/>
  <variable name="x_7_15" index="161" value="1.00000"/>
  <variable name="x_8_6" index="174" value="1.00000"/>
  <variable name="x_9_2" index="191" value="1.00000"/>
  <variable name="x_10_18" index="227" value="1.00000"/>
  <variable name="x_11_0" index="231" value="1.00000"/>
  <variable name="x_12_11" index="263" value="1.00000"/>
  <variable name="x_13_17" index="289" value="1.00000"/>
  <variable name="x_14_20" index="313" value="1.00000"/>
  <variable name="x_15_0" index="315" value="1.00000"/>
  <variable name="x_16_0" index="336" value="1.00000"/>
  <variable name="x_17_0" index="357" value="1.00000"/>
  <variable name="x_18_0" index="378" value="1.00000"/>
  <variable name="x_19_13" index="412" value="1.00000"/>
  <variable name="x_20_0" index="420" value="1.00000"/>
  <variable name="x_21_0" index="441" value="1.00000"/>
  <variable name="u_1" index="462" value="39.00000"/>
  <variable name="u_2" index="463" value="8.00000"/>
  <variable name="u_3" index="464" value="27.00000"/>
  <variable name="u_4" index="465" value="32.00000"/>
  <variable name="u_5" index="466" value="33.00000"/>
  <variable name="u_6" index="467" value="39.00000"/>
  <variable name="u_7" index="468" value="37.00000"/>
  <variable name="u_8" index="469" value="30.00000"/>
  <variable name="u_9" index="470" value="7.00000"/>
  <variable name="u_10" index="471" value="5.00000"/>
  <variable name="u_11" index="472" value="36.00000"/>
  <variable name="u_12" index="473" value="18.00000"/>
  <variable name="u_13" index="474" value="27.00000"/>
  <variable name="u_14" index="475" value="26.00000"/>
  <variable name="u_15" index="476" value="38.00000"/>
  <variable name="u_16" index="477" value="38.00000"/>
  <variable name="u_17" index="478" value="37.00000"/>
  <variable name="u_18" index="479" value="32.00000"/>
  <variable name="u_19" index="480" value="10.00000"/>
  <variable name="u_20" index="481" value="39.00000"/>
  <variable name="u_21" index="482" value="39.00000"/>
 </variables>
</CPLEXSolution>
